540
1 0 5 518 1 521 1 520 1 519 1 504 1
2 0 5 158 1 15 1 312 1 145 1 64 1
3 0 5 299 1 165 1 428 1 52 1 359 1
4 0 5 75 1 73 1 317 1 212 1 395 1
5 0 5 53 1 423 1 132 1 21 1 411 1
6 0 5 135 1 275 1 494 1 345 1 298 1
7 0 5 125 1 151 1 439 1 276 1 356 1
8 0 5 103 1 429 1 98 1 178 1 76 1
9 0 5 35 1 403 1 349 1 179 1 328 1
10 0 5 191 1 144 1 173 1 271 1 460 1
11 0 5 372 1 319 1 153 1 234 1 416 1
12 0 5 97 1 88 1 210 1 184 1 351 1
13 0 5 190 1 272 1 339 1 379 1 290 1
14 0 5 357 1 180 1 334 1 443 1 64 1
15 0 5 158 1 145 1 447 1 99 1 64 1
16 0 5 376 1 349 1 90 1 37 1 328 1
17 0 5 19 1 241 1 166 1 327 1 264 1
18 0 5 404 1 188 1 366 1 421 1 449 1
19 0 5 17 1 241 1 11 1 327 1 425 1
20 0 5 41 1 124 1 169 1 417 1 453 1
21 0 5 132 1 142 1 401 1 53 1 5 1
22 0 5 39 1 70 1 32 1 18 1 243 1
23 0 5 441 1 430 1 374 1 204 1 304 1
24 0 5 222 1 86 1 196 1 57 1 197 1
25 0 5 96 1 314 1 233 1 322 1 447 1
26 0 5 411 1 186 1 344 1 214 1 471 1
27 0 5 455 1 262 1 112 1 122 1 419 1
28 0 5 256 1 69 1 350 1 321 1 196 1
29 0 5 479 1 272 1 354 1 13 1 190 1
30 0 5 192 1 200 1 356 1 151 1 202 1
31 0 5 242 1 361 1 487 1 79 1 61 1
32 0 5 39 1 136 1 352 1 22 1 116 1
33 0 5 195 1 108 1 177 1 318 1 149 1
34 0 5 169 1 160 1 457 1 115 1 124 1
35 0 5 9 1 328 1 349 1 403 1 231 1
36 0 5 130 1 330 1 113 1 150 1 117 1
37 0 5 376 1 466 1 306 1 16 1 66 1
38 0 5 223 1 461 1 378 1 224 1 116 1
39 0 5 32 1 22 1 56 1 18 1 421 1
40 0 5 318 1 33 1 71 1 138 1 258 1
41 0 5 20 1 124 1 169 1 453 1 473 1
42 0 5 276 1 50 1 129 1 405 1 160 1
43 0 5 246 1 74 1 253 1 143 1 363 1
44 0 5 307 1 215 1 290 1 105 1 361 1
45 0 5 141 1 475 1 106 1 302 1 146 1
46 0 5 343 1 183 1 341 1 100 1 493 1
47 0 5 399 1 298 1 480 1 294 1 345 1
48 0 5 485 1 267 1 489 1 482 1 496 1
49 0 5 61 1 384 1 490 1 242 1 31 1
50 0 5 129 1 405 1 160 1 42 1 279 1
51 0 5 370 1 420 1 383 1 140 1 312 1
52 0 5 359 1 297 1 3 1 445 1 299 1
53 0 5 5 1 132 1 21 1 423 1 411 1
54 0 5 255 1 84 1 283 1 386 1 77 1
55 0 5 250 1 95 1 288 1 100 1 357 1
56 0 5 107 1 421 1 121 1 39 1 366 1
57 0 5 197 1 196 1 24 1 86 1 321 1
58 0 5 128 1 414 1 179 1 85 1 403 1
59 0 5 333 1 363 1 253 1 185 1 83 1
60 0 5 270 1 186 1 471 1 136 1 352 1
61 0 5 49 1 242 1 384 1 31 1 490 1
62 0 5 303 1 390 1 109 1 337 1 291 1
63 0 5 278 1 306 1 257 1 90 1 376 1
64 0 5 180 1 14 1 99 1 357 1 15 1
65 0 5 207 1 218 1 251 1 388 1 266 1
66 0 5 424 1 328 1 37 1 466 1 35 1
67 0 5 341 1 87 1 139 1 110 1 392 1
68 0 5 240 1 133 1 465 1 440 1 444 1
69 0 5 28 1 321 1 181 1 256 1 98 1
70 0 5 243 1 22 1 378 1 224 1 39 1
71 0 5 469 1 450 1 108 1 318 1 33 1
72 0 5 226 1 484 1 315 1 245 1 295 1
73 0 5 4 1 317 1 75 1 212 1 166 1
74 0 5 143 1 43 1 259 1 171 1 162 1
75 0 5 4 1 73 1 317 1 395 1 212 1
76 0 5 103 1 216 1 155 1 214 1 8 1
77 0 5 283 1 84 1 350 1 255 1 54 1
78 0 5 396 1 325 1 434 1 460 1 144 1
79 0 5 361 1 31 1 464 1 300 1 242 1
80 0 5 123 1 264 1 137 1 365 1 166 1
81 0 5 327 1 433 1 118 1 265 1 382 1
82 0 5 386 1 199 1 148 1 438 1 54 1
83 0 5 436 1 491 1 394 1 59 1 333 1
84 0 5 283 1 77 1 255 1 350 1 54 1
85 0 5 416 1 234 1 128 1 58 1 319 1
86 0 5 24 1 196 1 222 1 340 1 57 1
87 0 5 110 1 67 1 391 1 320 1 473 1
88 0 5 97 1 12 1 351 1 274 1 184 1
89 0 5 168 1 225 1 280 1 269 1 397 1
90 0 5 16 1 257 1 63 1 376 1 431 1
91 0 5 162 1 171 1 113 1 446 1 36 1
92 0 5 353 1 483 1 480 1 152 1 477 1
93 0 5 331 1 284 1 206 1 239 1 398 1
94 0 5 415 1 367 1 336 1 217 1 244 1
95 0 5 250 1 288 1 55 1 334 1 443 1
96 0 5 25 1 314 1 233 1 447 1 99 1
97 0 5 88 1 12 1 210 1 274 1 351 1
98 0 5 8 1 304 1 429 1 178 1 374 1
99 0 5 447 1 145 1 96 1 64 1 25 1
100 0 5 343 1 183 1 46 1 358 1 55 1
101 0 5 387 1 138 1 311 1 269 1 163 1
102 0 5 268 1 412 1 385 1 261 1 502 1
103 0 5 8 1 76 1 429 1 216 1 155 1
104 0 5 175 1 486 1 213 1 221 1 281 1
105 0 5 290 1 307 1 44 1 261 1 215 1
106 0 5 146 1 316 1 45 1 141 1 475 1
107 0 5 121 1 56 1 421 1 131 1 366 1
108 0 5 450 1 71 1 277 1 33 1 195 1
109 0 5 390 1 303 1 381 1 285 1 62 1
110 0 5 87 1 391 1 320 1 388 1 67 1
111 0 5 467 1 454 1 465 1 137 1 80 1
112 0 5 455 1 322 1 135 1 27 1 122 1
113 0 5 117 1 130 1 171 1 91 1 36 1
114 0 5 220 1 292 1 477 1 338 1 42 1
115 0 5 279 1 169 1 160 1 34 1 129 1
116 0 5 378 1 437 1 136 1 32 1 186 1
117 0 5 137 1 113 1 130 1 111 1 36 1
118 0 5 81 1 319 1 433 1 11 1 128 1
119 0 5 230 1 293 1 139 1 331 1 236 1
120 0 5 409 1 211 1 342 1 187 1 368 1
121 0 5 107 1 131 1 56 1 421 1 366 1
122 0 5 262 1 419 1 455 1 112 1 27 1
123 0 5 80 1 365 1 264 1 166 1 212 1
124 0 5 34 1 417 1 169 1 20 1 41 1
125 0 5 356 1 151 1 435 1 380 1 439 1
126 0 5 200 1 192 1 232 1 202 1 380 1
127 0 5 457 1 276 1 417 1 439 1 34 1
128 0 5 58 1 85 1 319 1 179 1 118 1
129 0 5 50 1 160 1 405 1 42 1 279 1
130 0 5 36 1 117 1 113 1 330 1 150 1
131 0 5 235 1 121 1 107 1 142 1 401 1
132 0 5 21 1 142 1 401 1 53 1 423 1
133 0 5 440 1 444 1 273 1 240 1 68 1
134 0 5 468 1 340 1 222 1 165 1 198 1
135 0 5 6 1 322 1 494 1 275 1 112 1
136 0 5 352 1 32 1 60 1 116 1 186 1
137 0 5 117 1 80 1 123 1 111 1 113 1
138 0 5 203 1 159 1 101 1 154 1 163 1
139 0 5 473 1 67 1 119 1 87 1 236 1
140 0 5 370 1 420 1 383 1 326 1 51 1
141 0 5 475 1 45 1 302 1 106 1 146 1
142 0 5 132 1 21 1 423 1 235 1 401 1
143 0 5 259 1 74 1 212 1 365 1 395 1
144 0 5 460 1 396 1 191 1 78 1 173 1
145 0 5 447 1 15 1 99 1 314 1 158 1
146 0 5 106 1 316 1 227 1 377 1 141 1
147 0 5 408 1 271 1 164 1 144 1 138 1
148 0 5 199 1 172 1 386 1 82 1 227 1
149 0 5 368 1 195 1 177 1 33 1 211 1
150 0 5 330 1 465 1 240 1 467 1 273 1
151 0 5 356 1 125 1 30 1 192 1 380 1
152 0 5 483 1 477 1 92 1 353 1 407 1
153 0 5 372 1 234 1 425 1 416 1 11 1
154 0 5 301 1 469 1 375 1 360 1 310 1
155 0 5 216 1 214 1 76 1 422 1 103 1
156 0 5 202 1 254 1 488 1 232 1 126 1
157 0 5 165 1 468 1 438 1 134 1 428 1
158 0 5 15 1 145 1 2 1 122 1 312 1
159 0 5 364 1 375 1 219 1 313 1 203 1
160 0 5 129 1 50 1 34 1 115 1 279 1
161 0 5 471 1 270 1 423 1 411 1 60 1
162 0 5 171 1 91 1 113 1 446 1 185 1
163 0 5 269 1 203 1 164 1 138 1 101 1
164 0 5 271 1 163 1 269 1 203 1 408 1
165 0 5 157 1 468 1 438 1 134 1 428 1
166 0 5 264 1 365 1 17 1 80 1 123 1
167 0 5 297 1 426 1 470 1 258 1 342 1
168 0 5 89 1 269 1 387 1 311 1 225 1
169 0 5 115 1 34 1 279 1 124 1 160 1
170 0 5 428 1 413 1 157 1 165 1 199 1
171 0 5 162 1 113 1 91 1 74 1 117 1
172 0 5 148 1 346 1 199 1 252 1 227 1
173 0 5 460 1 144 1 10 1 191 1 271 1
174 0 5 497 1 501 1 371 1 79 1 464 1
175 0 5 104 1 281 1 221 1 486 1 502 1
176 0 5 286 1 231 1 424 1 373 1 418 1
177 0 5 368 1 149 1 33 1 211 1 195 1
178 0 5 8 1 321 1 193 1 98 1 69 1
179 0 5 403 1 58 1 9 1 231 1 128 1
180 0 5 14 1 357 1 64 1 334 1 443 1
181 0 5 69 1 256 1 304 1 98 1 350 1
182 0 5 332 1 287 1 459 1 499 1 217 1
183 0 5 100 1 46 1 343 1 64 1 55 1
184 0 5 351 1 233 1 345 1 12 1 88 1
185 0 5 363 1 446 1 253 1 333 1 162 1
186 0 5 344 1 437 1 60 1 26 1 136 1
187 0 5 452 1 445 1 409 1 235 1 401 1
188 0 5 404 1 18 1 449 1 366 1 421 1
189 0 5 280 1 397 1 191 1 194 1 225 1
190 0 5 13 1 339 1 272 1 290 1 205 1
191 0 5 189 1 144 1 10 1 280 1 271 1
192 0 5 30 1 200 1 356 1 126 1 380 1
193 0 5 406 1 476 1 178 1 197 1 321 1
194 0 5 397 1 475 1 141 1 302 1 377 1
195 0 5 149 1 33 1 277 1 368 1 108 1
196 0 5 57 1 197 1 86 1 24 1 321 1
197 0 5 57 1 196 1 24 1 193 1 321 1
198 0 5 340 1 134 1 438 1 468 1 77 1
199 0 5 148 1 386 1 82 1 172 1 170 1
200 0 5 192 1 30 1 126 1 380 1 356 1
201 0 5 367 1 415 1 209 1 244 1 347 1
202 0 5 156 1 254 1 488 1 126 1 232 1
203 0 5 219 1 159 1 408 1 138 1 163 1
204 0 5 355 1 374 1 304 1 347 1 209 1
205 0 5 238 1 208 1 339 1 335 1 190 1
206 0 5 239 1 284 1 93 1 331 1 398 1
207 0 5 65 1 338 1 218 1 251 1 388 1
208 0 5 339 1 238 1 205 1 495 1 323 1
209 0 5 347 1 201 1 308 1 244 1 367 1
210 0 5 12 1 97 1 442 1 274 1 309 1
211 0 5 368 1 120 1 409 1 342 1 177 1
212 0 5 365 1 73 1 4 1 259 1 75 1
213 0 5 398 1 104 1 486 1 175 1 254 1
214 0 5 422 1 155 1 216 1 76 1 26 1
215 0 5 307 1 44 1 361 1 105 1 300 1
216 0 5 76 1 155 1 103 1 214 1 422 1
217 0 5 336 1 499 1 325 1 459 1 287 1
218 0 5 251 1 65 1 266 1 388 1 207 1
219 0 5 408 1 159 1 203 1 364 1 375 1
220 0 5 292 1 114 1 407 1 498 1 477 1
221 0 5 486 1 281 1 175 1 104 1 436 1
222 0 5 24 1 86 1 134 1 340 1 196 1
223 0 5 461 1 38 1 224 1 310 1 378 1
224 0 5 461 1 223 1 310 1 70 1 38 1
225 0 5 397 1 280 1 377 1 89 1 189 1
226 0 5 72 1 245 1 315 1 484 1 295 1
227 0 5 252 1 316 1 346 1 148 1 146 1
228 0 5 247 1 260 1 478 1 282 1 288 1
229 0 5 359 1 401 1 299 1 3 1 52 1
230 0 5 293 1 236 1 119 1 329 1 358 1
231 0 5 286 1 179 1 35 1 424 1 403 1
232 0 5 254 1 156 1 126 1 202 1 398 1
233 0 5 351 1 96 1 25 1 184 1 314 1
234 0 5 416 1 153 1 85 1 372 1 319 1
235 0 5 131 1 401 1 142 1 187 1 21 1
236 0 5 329 1 230 1 358 1 293 1 119 1
237 0 5 263 1 402 1 456 1 451 1 295 1
238 0 5 205 1 208 1 339 1 324 1 323 1
239 0 5 206 1 453 1 284 1 331 1 93 1
240 0 5 68 1 465 1 467 1 150 1 133 1
241 0 5 19 1 425 1 454 1 17 1 153 1
242 0 5 487 1 31 1 61 1 361 1 49 1
243 0 5 277 1 70 1 224 1 22 1 450 1
244 0 5 308 1 415 1 201 1 367 1 347 1
245 0 5 226 1 285 1 400 1 315 1 72 1
246 0 5 43 1 253 1 363 1 333 1 74 1
247 0 5 478 1 228 1 282 1 260 1 288 1
248 0 5 427 1 410 1 485 1 311 1 48 1
249 0 5 296 1 326 1 348 1 492 1 463 1
250 0 5 95 1 55 1 288 1 334 1 357 1
251 0 5 218 1 65 1 266 1 207 1 388 1
252 0 5 227 1 346 1 172 1 148 1 316 1
253 0 5 363 1 185 1 333 1 59 1 246 1
254 0 5 156 1 488 1 232 1 202 1 213 1
255 0 5 54 1 84 1 283 1 77 1 386 1
256 0 5 28 1 350 1 69 1 181 1 321 1
257 0 5 324 1 63 1 90 1 431 1 323 1
258 0 5 426 1 167 1 496 1 470 1 482 1
259 0 5 143 1 212 1 395 1 365 1 74 1
260 0 5 491 1 228 1 394 1 247 1 478 1
261 0 5 369 1 371 1 464 1 300 1 105 1
262 0 5 419 1 122 1 27 1 432 1 455 1
263 0 5 237 1 456 1 402 1 451 1 494 1
264 0 5 166 1 80 1 123 1 365 1 212 1
265 0 5 433 1 382 1 327 1 81 1 501 1
266 0 5 493 1 251 1 309 1 218 1 392 1
267 0 5 489 1 482 1 48 1 496 1 485 1
268 0 5 412 1 281 1 448 1 102 1 385 1
269 0 5 163 1 168 1 89 1 164 1 203 1
270 0 5 60 1 471 1 393 1 161 1 423 1
271 0 5 164 1 10 1 147 1 408 1 191 1
272 0 5 13 1 500 1 379 1 190 1 389 1
273 0 5 440 1 133 1 291 1 444 1 330 1
274 0 5 309 1 97 1 210 1 88 1 266 1
275 0 5 494 1 6 1 135 1 345 1 298 1
276 0 5 127 1 42 1 457 1 439 1 417 1
277 0 5 243 1 450 1 108 1 195 1 224 1
278 0 5 306 1 63 1 466 1 376 1 37 1
279 0 5 115 1 169 1 160 1 129 1 405 1
280 0 5 397 1 189 1 225 1 89 1 191 1
281 0 5 268 1 221 1 412 1 175 1 102 1
282 0 5 478 1 247 1 492 1 463 1 228 1
283 0 5 77 1 84 1 350 1 255 1 54 1
284 0 5 331 1 93 1 206 1 239 1 119 1
285 0 5 400 1 381 1 432 1 245 1 303 1
286 0 5 231 1 176 1 424 1 179 1 414 1
287 0 5 332 1 459 1 182 1 499 1 217 1
288 0 5 95 1 250 1 55 1 478 1 334 1
289 0 5 336 1 474 1 430 1 209 1 302 1
290 0 5 105 1 44 1 307 1 190 1 379 1
291 0 5 337 1 273 1 330 1 62 1 150 1
292 0 5 220 1 498 1 114 1 407 1 477 1
293 0 5 230 1 119 1 236 1 228 1 331 1
294 0 5 481 1 480 1 353 1 298 1 47 1
295 0 5 451 1 315 1 456 1 484 1 237 1
296 0 5 348 1 492 1 446 1 249 1 185 1
297 0 5 470 1 167 1 426 1 52 1 342 1
298 0 5 47 1 399 1 345 1 294 1 275 1
299 0 5 3 1 165 1 229 1 359 1 428 1
300 0 5 464 1 369 1 371 1 79 1 261 1
301 0 5 360 1 469 1 310 1 154 1 450 1
302 0 5 474 1 475 1 430 1 45 1 141 1
303 0 5 62 1 390 1 109 1 285 1 245 1
304 0 5 374 1 98 1 181 1 204 1 355 1
305 0 5 443 1 334 1 463 1 51 1 14 1
306 0 5 278 1 63 1 376 1 37 1 466 1
307 0 5 44 1 215 1 105 1 290 1 361 1
308 0 5 347 1 244 1 429 1 209 1 355 1
309 0 5 266 1 274 1 493 1 210 1 251 1
310 0 5 360 1 224 1 301 1 461 1 223 1
311 0 5 387 1 248 1 427 1 410 1 101 1
312 0 5 383 1 140 1 370 1 419 1 262 1
313 0 5 364 1 375 1 159 1 219 1 154 1
314 0 5 25 1 96 1 322 1 233 1 447 1
315 0 5 295 1 226 1 451 1 72 1 484 1
316 0 5 146 1 227 1 106 1 252 1 377 1
317 0 5 73 1 462 1 4 1 75 1 212 1
318 0 5 40 1 71 1 33 1 469 1 108 1
319 0 5 11 1 372 1 118 1 153 1 128 1
320 0 5 391 1 110 1 87 1 388 1 405 1
321 0 5 69 1 178 1 28 1 196 1 197 1
322 0 5 112 1 455 1 314 1 135 1 25 1
323 0 5 324 1 257 1 278 1 495 1 373 1
324 0 5 257 1 323 1 278 1 431 1 63 1
325 0 5 434 1 459 1 499 1 217 1 78 1
326 0 5 420 1 370 1 140 1 51 1 383 1
327 0 5 81 1 382 1 265 1 433 1 17 1
328 0 5 349 1 35 1 66 1 9 1 37 1
329 0 5 358 1 236 1 343 1 100 1 55 1
330 0 5 150 1 291 1 273 1 36 1 130 1
331 0 5 284 1 93 1 239 1 206 1 119 1
332 0 5 182 1 287 1 459 1 499 1 217 1
333 0 5 59 1 363 1 253 1 185 1 246 1
334 0 5 443 1 305 1 14 1 357 1 95 1
335 0 5 205 1 431 1 238 1 339 1 190 1
336 0 5 289 1 217 1 367 1 499 1 415 1
337 0 5 291 1 62 1 273 1 330 1 390 1
338 0 5 207 1 114 1 498 1 292 1 220 1
339 0 5 208 1 190 1 205 1 238 1 13 1
340 0 5 198 1 134 1 468 1 86 1 438 1
341 0 5 67 1 343 1 46 1 392 1 493 1
342 0 5 120 1 445 1 409 1 167 1 297 1
343 0 5 100 1 46 1 341 1 358 1 183 1
344 0 5 186 1 437 1 60 1 26 1 136 1
345 0 5 298 1 184 1 6 1 275 1 135 1
346 0 5 252 1 172 1 227 1 148 1 199 1
347 0 5 209 1 308 1 355 1 201 1 244 1
348 0 5 296 1 492 1 446 1 249 1 491 1
349 0 5 328 1 16 1 35 1 9 1 37 1
350 0 5 256 1 28 1 77 1 84 1 283 1
351 0 5 184 1 233 1 88 1 96 1 12 1
352 0 5 136 1 393 1 60 1 32 1 270 1
353 0 5 92 1 480 1 483 1 152 1 294 1
354 0 5 29 1 472 1 479 1 13 1 190 1
355 0 5 204 1 347 1 374 1 308 1 429 1
356 0 5 125 1 151 1 192 1 30 1 380 1
357 0 5 14 1 180 1 334 1 64 1 443 1
358 0 5 329 1 236 1 343 1 100 1 55 1
359 0 5 229 1 452 1 52 1 445 1 299 1
360 0 5 310 1 301 1 224 1 450 1 469 1
361 0 5 31 1 79 1 215 1 242 1 487 1
362 0 5 335 1 431 1 472 1 147 1 354 1
363 0 5 253 1 185 1 333 1 59 1 446 1
364 0 5 313 1 375 1 159 1 219 1 203 1
365 0 5 212 1 123 1 80 1 166 1 264 1
366 0 5 421 1 404 1 18 1 188 1 449 1
367 0 5 415 1 201 1 244 1 209 1 336 1
368 0 5 177 1 149 1 211 1 195 1 120 1
369 0 5 371 1 261 1 464 1 300 1 79 1
370 0 5 420 1 140 1 383 1 51 1 326 1
371 0 5 369 1 464 1 300 1 261 1 174 1
372 0 5 11 1 153 1 319 1 234 1 416 1
373 0 5 424 1 466 1 66 1 176 1 418 1
374 0 5 304 1 204 1 355 1 98 1 441 1
375 0 5 313 1 364 1 159 1 154 1 219 1
376 0 5 16 1 37 1 306 1 63 1 349 1
377 0 5 146 1 225 1 316 1 227 1 475 1
378 0 5 116 1 38 1 70 1 224 1 32 1
379 0 5 500 1 502 1 389 1 272 1 290 1
380 0 5 435 1 439 1 125 1 356 1 200 1
381 0 5 400 1 285 1 432 1 109 1 245 1
382 0 5 265 1 501 1 433 1 327 1 462 1
383 0 5 370 1 312 1 140 1 420 1 51 1
384 0 5 490 1 414 1 49 1 61 1 176 1
385 0 5 448 1 412 1 102 1 268 1 395 1
386 0 5 82 1 199 1 148 1 54 1 438 1
387 0 5 311 1 101 1 410 1 248 1 427 1
388 0 5 392 1 218 1 65 1 251 1 320 1
389 0 5 500 1 502 1 379 1 272 1 488 1
390 0 5 109 1 303 1 62 1 285 1 140 1
391 0 5 320 1 110 1 87 1 405 1 388 1
392 0 5 493 1 266 1 388 1 218 1 309 1
393 0 5 352 1 270 1 60 1 56 1 423 1
394 0 5 491 1 436 1 260 1 83 1 458 1
395 0 5 75 1 259 1 4 1 143 1 212 1
396 0 5 78 1 325 1 434 1 460 1 144 1
397 0 5 225 1 280 1 189 1 194 1 377 1
398 0 5 213 1 206 1 232 1 104 1 254 1
399 0 5 47 1 298 1 275 1 480 1 494 1
400 0 5 381 1 285 1 432 1 245 1 303 1
401 0 5 235 1 21 1 132 1 142 1 229 1
402 0 5 237 1 263 1 456 1 494 1 451 1
403 0 5 9 1 179 1 35 1 231 1 58 1
404 0 5 188 1 18 1 366 1 449 1 421 1
405 0 5 50 1 129 1 42 1 279 1 160 1
406 0 5 476 1 193 1 411 1 422 1 26 1
407 0 5 477 1 220 1 498 1 292 1 152 1
408 0 5 219 1 203 1 159 1 164 1 271 1
409 0 5 120 1 187 1 342 1 449 1 211 1
410 0 5 248 1 482 1 427 1 311 1 267 1
411 0 5 26 1 476 1 406 1 161 1 471 1
412 0 5 448 1 268 1 385 1 102 1 281 1
413 0 5 170 1 428 1 48 1 489 1 267 1
414 0 5 490 1 384 1 58 1 128 1 179 1
415 0 5 367 1 244 1 201 1 209 1 336 1
416 0 5 234 1 153 1 85 1 372 1 319 1
417 0 5 127 1 457 1 439 1 124 1 276 1
418 0 5 487 1 495 1 373 1 176 1 242 1
419 0 5 262 1 122 1 432 1 27 1 312 1
420 0 5 370 1 140 1 326 1 383 1 51 1
421 0 5 366 1 56 1 107 1 404 1 18 1
422 0 5 214 1 155 1 216 1 476 1 406 1
423 0 5 142 1 161 1 5 1 132 1 53 1
424 0 5 66 1 373 1 231 1 466 1 286 1
425 0 5 454 1 153 1 241 1 372 1 416 1
426 0 5 470 1 167 1 258 1 496 1 297 1
427 0 5 248 1 311 1 485 1 410 1 387 1
428 0 5 170 1 413 1 157 1 165 1 3 1
429 0 5 103 1 8 1 308 1 98 1 355 1
430 0 5 474 1 289 1 302 1 23 1 441 1
431 0 5 257 1 90 1 324 1 335 1 238 1
432 0 5 400 1 381 1 285 1 262 1 419 1
433 0 5 265 1 81 1 382 1 327 1 118 1
434 0 5 325 1 78 1 460 1 217 1 396 1
435 0 5 439 1 380 1 125 1 417 1 127 1
436 0 5 83 1 394 1 491 1 59 1 333 1
437 0 5 344 1 116 1 186 1 26 1 60 1
438 0 5 468 1 157 1 165 1 198 1 340 1
439 0 5 435 1 417 1 127 1 276 1 380 1
440 0 5 133 1 444 1 273 1 240 1 68 1
441 0 5 23 1 374 1 304 1 204 1 181 1
442 0 5 498 1 481 1 210 1 338 1 65 1
443 0 5 334 1 305 1 14 1 357 1 180 1
444 0 5 440 1 133 1 273 1 68 1 72 1
445 0 5 452 1 187 1 359 1 342 1 52 1
446 0 5 185 1 91 1 363 1 162 1 253 1
447 0 5 99 1 145 1 96 1 25 1 314 1
448 0 5 412 1 385 1 268 1 43 1 395 1
449 0 5 188 1 404 1 366 1 18 1 421 1
450 0 5 108 1 71 1 301 1 277 1 469 1
451 0 5 295 1 456 1 484 1 315 1 237 1
452 0 5 445 1 187 1 359 1 342 1 401 1
453 0 5 239 1 206 1 119 1 331 1 284 1
454 0 5 425 1 241 1 111 1 153 1 467 1
455 0 5 112 1 322 1 122 1 27 1 262 1
456 0 5 237 1 451 1 263 1 402 1 295 1
457 0 5 127 1 276 1 417 1 34 1 160 1
458 0 5 394 1 486 1 260 1 491 1 436 1
459 0 5 499 1 287 1 325 1 217 1 332 1
460 0 5 144 1 78 1 434 1 396 1 173 1
461 0 5 224 1 223 1 38 1 310 1 70 1
462 0 5 317 1 382 1 73 1 75 1 501 1
463 0 5 492 1 305 1 282 1 478 1 249 1
464 0 5 300 1 369 1 371 1 79 1 261 1
465 0 5 467 1 240 1 150 1 111 1 68 1
466 0 5 37 1 306 1 66 1 278 1 424 1
467 0 5 465 1 111 1 240 1 150 1 68 1
468 0 5 438 1 165 1 157 1 134 1 340 1
469 0 5 71 1 301 1 154 1 450 1 360 1
470 0 5 297 1 426 1 167 1 496 1 52 1
471 0 5 161 1 270 1 60 1 423 1 186 1
472 0 5 354 1 335 1 479 1 29 1 272 1
473 0 5 139 1 87 1 169 1 67 1 279 1
474 0 5 430 1 289 1 302 1 45 1 23 1
475 0 5 141 1 45 1 302 1 194 1 377 1
476 0 5 406 1 411 1 193 1 422 1 26 1
477 0 5 152 1 407 1 483 1 114 1 220 1
478 0 5 282 1 247 1 228 1 288 1 260 1
479 0 5 29 1 354 1 30 1 151 1 272 1
480 0 5 92 1 353 1 47 1 483 1 294 1
481 0 5 294 1 442 1 480 1 353 1 345 1
482 0 5 267 1 489 1 496 1 410 1 48 1
483 0 5 152 1 92 1 477 1 353 1 480 1
484 0 5 72 1 451 1 295 1 226 1 315 1
485 0 5 48 1 248 1 267 1 427 1 489 1
486 0 5 104 1 221 1 175 1 458 1 436 1
487 0 5 242 1 31 1 418 1 361 1 61 1
488 0 5 156 1 254 1 389 1 202 1 502 1
489 0 5 267 1 496 1 482 1 48 1 485 1
490 0 5 384 1 414 1 49 1 58 1 61 1
491 0 5 394 1 260 1 83 1 436 1 348 1
492 0 5 463 1 348 1 296 1 282 1 249 1
493 0 5 392 1 266 1 309 1 218 1 251 1
494 0 5 275 1 6 1 135 1 402 1 263 1
495 0 5 418 1 208 1 323 1 373 1 238 1
496 0 5 489 1 267 1 482 1 426 1 470 1
497 0 5 174 1 501 1 382 1 265 1 79 1
498 0 5 292 1 220 1 407 1 338 1 442 1
499 0 5 459 1 217 1 287 1 325 1 336 1
500 0 5 389 1 379 1 272 1 502 1 13 1
501 0 5 382 1 497 1 265 1 174 1 462 1
502 0 5 379 1 500 1 389 1 290 1 105 1
503 0 5 518 1 521 1 520 1 519 1 504 1
504 0 5 518 1 521 1 520 1 519 1 504 1
505 0 5 518 1 521 1 520 1 519 1 504 1
506 0 5 518 1 521 1 520 1 519 1 504 1
507 0 5 518 1 521 1 520 1 519 1 504 1
508 0 5 518 1 521 1 520 1 519 1 504 1
509 0 5 518 1 521 1 520 1 519 1 504 1
510 0 5 518 1 521 1 520 1 519 1 504 1
511 0 5 518 1 521 1 520 1 519 1 504 1
512 0 5 518 1 521 1 520 1 519 1 504 1
513 0 5 518 1 521 1 520 1 519 1 504 1
514 0 5 518 1 521 1 520 1 519 1 504 1
515 0 5 518 1 521 1 520 1 519 1 504 1
516 0 5 518 1 521 1 520 1 519 1 504 1
517 0 5 518 1 521 1 520 1 519 1 504 1
518 0 5 518 1 521 1 520 1 519 1 504 1
519 0 5 518 1 521 1 520 1 519 1 504 1
520 0 5 518 1 521 1 520 1 519 1 504 1
521 0 5 518 1 521 1 520 1 519 1 504 1
522 0 5 518 1 521 1 520 1 519 1 504 1
523 0 5 518 1 521 1 520 1 519 1 504 1
524 0 5 518 1 521 1 520 1 519 1 504 1
525 0 5 518 1 521 1 520 1 519 1 504 1
526 0 5 518 1 521 1 520 1 519 1 504 1
527 0 5 518 1 521 1 520 1 519 1 504 1
528 0 5 518 1 521 1 520 1 519 1 504 1
529 0 5 518 1 521 1 520 1 519 1 504 1
530 0 5 518 1 521 1 520 1 519 1 504 1
531 0 5 518 1 521 1 520 1 519 1 504 1
532 0 5 518 1 521 1 520 1 519 1 504 1
533 0 5 518 1 521 1 520 1 519 1 504 1
534 0 5 518 1 521 1 520 1 519 1 504 1
535 0 5 518 1 521 1 520 1 519 1 504 1
536 0 5 518 1 521 1 520 1 519 1 504 1
537 0 5 518 1 521 1 520 1 519 1 504 1
538 0 5 518 1 521 1 520 1 519 1 504 1
539 0 5 518 1 521 1 520 1 519 1 504 1
540 0 5 518 1 521 1 520 1 519 1 504 1
-1
EOF
